% File represents an instance of a Composite Structure problem to be solved by a CP framework
% Created on 2025-03-25 14:06:15.047
T = 54;
n = 36;
m = 60;
edges = [(2, 1),
(7, 8),
(13, 14),
(20, 19),
(25, 26),
(31, 32),
(2, 3),
(8, 9),
(15, 14),
(21, 20),
(27, 26),
(32, 33),
(4, 3),
(10, 9),
(16, 15),
(22, 21),
(28, 27),
(34, 33),
(4, 5),
(10, 11),
(16, 17),
(22, 23),
(28, 29),
(35, 34),
(5, 6),
(11, 12),
(17, 18),
(23, 24),
(29, 30),
(36, 35),
(7, 1),
(7, 13),
(13, 19),
(25, 19),
(31, 25),
(2, 8),
(8, 14),
(14, 20),
(26, 20),
(32, 26),
(3, 9),
(15, 9),
(21, 15),
(27, 21),
(27, 33),
(4, 10),
(16, 10),
(22, 16),
(28, 22),
(28, 34),
(5, 11),
(17, 11),
(17, 23),
(29, 23),
(35, 29),
(6, 12),
(18, 12),
(18, 24),
(30, 24),
(36, 30)];
counts = [|10, 16, 4, 12,
|10, 24, 6, 12,
|8, 20, 4, 10,
|10, 20, 6, 10,
|8, 18, 4, 6,
|8, 14, 4, 2,
|12, 16, 4, 14,
|10, 16, 4, 12,
|8, 16, 4, 4,
|8, 18, 4, 6,
|8, 16, 4, 6,
|8, 12, 4, 2,
|10, 16, 4, 8,
|10, 16, 4, 6,
|10, 18, 4, 6,
|14, 20, 6, 6,
|14, 20, 4, 6,
|14, 16, 4, 2,
|10, 16, 2, 4,
|10, 16, 2, 6,
|10, 18, 4, 10,
|14, 22, 6, 10,
|12, 20, 4, 6,
|12, 16, 4, 2,
|12, 16, 6, 8,
|10, 16, 4, 8,
|10, 18, 4, 12,
|14, 22, 6, 12,
|12, 22, 4, 8,
|12, 16, 4, 8,
|12, 24, 6, 8,
|12, 24, 4, 8,
|10, 18, 4, 6,
|12, 20, 4, 8,
|12, 24, 4, 8,
|14, 24, 4, 8|];
